instances/in_30_15_8_4.lp
#const n = 30.
#const k = 15.
#const h = 8.
tile(1,3,14).
tile(2,9,8).
tile(3,13,7).
tile(4,12,8).
tile(5,14,13).
tile(6,12,11).
tile(7,10,8).
tile(8,7,6).
tile(9,12,6).
tile(10,1,11).
tile(11,7,11).
tile(12,4,10).
tile(13,13,4).
tile(14,10,5).
tile(15,12,11).
tile(16,11,12).
tile(17,8,2).
tile(18,7,1).
tile(19,10,6).
tile(20,9,5).
tile(21,10,12).
tile(22,11,11).
tile(23,11,13).
tile(24,2,14).
tile(25,11,4).
tile(26,10,15).
tile(27,10,7).
tile(28,11,14).
tile(29,14,14).
tile(30,3,14).
