minizinc/input/in_30_15_8_4.dzn
n = 30;
k = 15;
h = 8;
tiles = array2d(1..n, 1..2,
[ 3,14
, 9,8
, 13,7
, 12,8
, 14,13
, 12,11
, 10,8
, 7,6
, 12,6
, 1,11
, 7,11
, 4,10
, 13,4
, 10,5
, 12,11
, 11,12
, 8,2
, 7,1
, 10,6
, 9,5
, 10,12
, 11,11
, 11,13
, 2,14
, 11,4
, 10,15
, 10,7
, 11,14
, 14,14
, 3,14
]);